certificates/rado_a15_c292_N68.cnf
c Rad2 upper bound instance: x1 + 15*x2 - x3 = 292, interval [1,68]
p cnf 68 608
1 9 20 0
-1 -9 -20 0
1 21 24 0
-1 -21 -24 0
1 22 39 0
-1 -22 -39 0
1 23 54 0
-1 -23 -54 0
2 10 20 0
-2 -10 -20 0
2 21 25 0
-2 -21 -25 0
2 22 40 0
-2 -22 -40 0
2 23 55 0
-2 -23 -55 0
3 11 20 0
-3 -11 -20 0
3 21 26 0
-3 -21 -26 0
3 22 41 0
-3 -22 -41 0
3 23 56 0
-3 -23 -56 0
4 12 20 0
-4 -12 -20 0
4 21 27 0
-4 -21 -27 0
4 22 42 0
-4 -22 -42 0
4 23 57 0
-4 -23 -57 0
5 13 20 0
-5 -13 -20 0
5 21 28 0
-5 -21 -28 0
5 22 43 0
-5 -22 -43 0
5 23 58 0
-5 -23 -58 0
6 14 20 0
-6 -14 -20 0
6 21 29 0
-6 -21 -29 0
6 22 44 0
-6 -22 -44 0
6 23 59 0
-6 -23 -59 0
7 15 20 0
-7 -15 -20 0
7 21 30 0
-7 -21 -30 0
7 22 45 0
-7 -22 -45 0
7 23 60 0
-7 -23 -60 0
1 8 19 0
-1 -8 -19 0
8 16 20 0
-8 -16 -20 0
8 21 31 0
-8 -21 -31 0
8 22 46 0
-8 -22 -46 0
8 23 61 0
-8 -23 -61 0
2 9 19 0
-2 -9 -19 0
9 17 20 0
-9 -17 -20 0
9 21 32 0
-9 -21 -32 0
9 22 47 0
-9 -22 -47 0
9 23 62 0
-9 -23 -62 0
3 10 19 0
-3 -10 -19 0
10 18 20 0
-10 -18 -20 0
10 21 33 0
-10 -21 -33 0
10 22 48 0
-10 -22 -48 0
10 23 63 0
-10 -23 -63 0
4 11 19 0
-4 -11 -19 0
11 19 20 0
-11 -19 -20 0
11 21 34 0
-11 -21 -34 0
11 22 49 0
-11 -22 -49 0
11 23 64 0
-11 -23 -64 0
5 12 19 0
-5 -12 -19 0
12 20 0
-12 -20 0
12 21 35 0
-12 -21 -35 0
12 22 50 0
-12 -22 -50 0
12 23 65 0
-12 -23 -65 0
6 13 19 0
-6 -13 -19 0
13 20 21 0
-13 -20 -21 0
13 21 36 0
-13 -21 -36 0
13 22 51 0
-13 -22 -51 0
13 23 66 0
-13 -23 -66 0
7 14 19 0
-7 -14 -19 0
14 20 22 0
-14 -20 -22 0
14 21 37 0
-14 -21 -37 0
14 22 52 0
-14 -22 -52 0
14 23 67 0
-14 -23 -67 0
8 15 19 0
-8 -15 -19 0
15 20 23 0
-15 -20 -23 0
15 21 38 0
-15 -21 -38 0
15 22 53 0
-15 -22 -53 0
15 23 68 0
-15 -23 -68 0
9 16 19 0
-9 -16 -19 0
16 20 24 0
-16 -20 -24 0
16 21 39 0
-16 -21 -39 0
16 22 54 0
-16 -22 -54 0
10 17 19 0
-10 -17 -19 0
17 20 25 0
-17 -20 -25 0
17 21 40 0
-17 -21 -40 0
17 22 55 0
-17 -22 -55 0
11 18 19 0
-11 -18 -19 0
18 20 26 0
-18 -20 -26 0
18 21 41 0
-18 -21 -41 0
18 22 56 0
-18 -22 -56 0
12 19 0
-12 -19 0
19 20 27 0
-19 -20 -27 0
19 21 42 0
-19 -21 -42 0
19 22 57 0
-19 -22 -57 0
13 19 20 0
-13 -19 -20 0
20 28 0
-20 -28 0
20 21 43 0
-20 -21 -43 0
20 22 58 0
-20 -22 -58 0
14 19 21 0
-14 -19 -21 0
20 21 29 0
-20 -21 -29 0
21 44 0
-21 -44 0
21 22 59 0
-21 -22 -59 0
15 19 22 0
-15 -19 -22 0
20 22 30 0
-20 -22 -30 0
21 22 45 0
-21 -22 -45 0
22 60 0
-22 -60 0
1 18 23 0
-1 -18 -23 0
16 19 23 0
-16 -19 -23 0
20 23 31 0
-20 -23 -31 0
21 23 46 0
-21 -23 -46 0
22 23 61 0
-22 -23 -61 0
2 18 24 0
-2 -18 -24 0
17 19 24 0
-17 -19 -24 0
20 24 32 0
-20 -24 -32 0
21 24 47 0
-21 -24 -47 0
22 24 62 0
-22 -24 -62 0
3 18 25 0
-3 -18 -25 0
18 19 25 0
-18 -19 -25 0
20 25 33 0
-20 -25 -33 0
21 25 48 0
-21 -25 -48 0
22 25 63 0
-22 -25 -63 0
4 18 26 0
-4 -18 -26 0
19 26 0
-19 -26 0
20 26 34 0
-20 -26 -34 0
21 26 49 0
-21 -26 -49 0
22 26 64 0
-22 -26 -64 0
5 18 27 0
-5 -18 -27 0
20 27 35 0
-20 -27 -35 0
21 27 50 0
-21 -27 -50 0
22 27 65 0
-22 -27 -65 0
6 18 28 0
-6 -18 -28 0
19 21 28 0
-19 -21 -28 0
20 28 36 0
-20 -28 -36 0
21 28 51 0
-21 -28 -51 0
22 28 66 0
-22 -28 -66 0
7 18 29 0
-7 -18 -29 0
19 22 29 0
-19 -22 -29 0
20 29 37 0
-20 -29 -37 0
21 29 52 0
-21 -29 -52 0
22 29 67 0
-22 -29 -67 0
8 18 30 0
-8 -18 -30 0
19 23 30 0
-19 -23 -30 0
20 30 38 0
-20 -30 -38 0
21 30 53 0
-21 -30 -53 0
22 30 68 0
-22 -30 -68 0
9 18 31 0
-9 -18 -31 0
19 24 31 0
-19 -24 -31 0
20 31 39 0
-20 -31 -39 0
21 31 54 0
-21 -31 -54 0
10 18 32 0
-10 -18 -32 0
19 25 32 0
-19 -25 -32 0
20 32 40 0
-20 -32 -40 0
21 32 55 0
-21 -32 -55 0
11 18 33 0
-11 -18 -33 0
19 26 33 0
-19 -26 -33 0
20 33 41 0
-20 -33 -41 0
21 33 56 0
-21 -33 -56 0
12 18 34 0
-12 -18 -34 0
19 27 34 0
-19 -27 -34 0
20 34 42 0
-20 -34 -42 0
21 34 57 0
-21 -34 -57 0
13 18 35 0
-13 -18 -35 0
19 28 35 0
-19 -28 -35 0
20 35 43 0
-20 -35 -43 0
21 35 58 0
-21 -35 -58 0
14 18 36 0
-14 -18 -36 0
19 29 36 0
-19 -29 -36 0
20 36 44 0
-20 -36 -44 0
21 36 59 0
-21 -36 -59 0
15 18 37 0
-15 -18 -37 0
19 30 37 0
-19 -30 -37 0
20 37 45 0
-20 -37 -45 0
21 37 60 0
-21 -37 -60 0
1 17 38 0
-1 -17 -38 0
16 18 38 0
-16 -18 -38 0
19 31 38 0
-19 -31 -38 0
20 38 46 0
-20 -38 -46 0
21 38 61 0
-21 -38 -61 0
2 17 39 0
-2 -17 -39 0
17 18 39 0
-17 -18 -39 0
19 32 39 0
-19 -32 -39 0
20 39 47 0
-20 -39 -47 0
21 39 62 0
-21 -39 -62 0
3 17 40 0
-3 -17 -40 0
18 40 0
-18 -40 0
19 33 40 0
-19 -33 -40 0
20 40 48 0
-20 -40 -48 0
21 40 63 0
-21 -40 -63 0
4 17 41 0
-4 -17 -41 0
18 19 41 0
-18 -19 -41 0
19 34 41 0
-19 -34 -41 0
20 41 49 0
-20 -41 -49 0
21 41 64 0
-21 -41 -64 0
5 17 42 0
-5 -17 -42 0
18 20 42 0
-18 -20 -42 0
19 35 42 0
-19 -35 -42 0
20 42 50 0
-20 -42 -50 0
21 42 65 0
-21 -42 -65 0
6 17 43 0
-6 -17 -43 0
18 21 43 0
-18 -21 -43 0
19 36 43 0
-19 -36 -43 0
20 43 51 0
-20 -43 -51 0
21 43 66 0
-21 -43 -66 0
7 17 44 0
-7 -17 -44 0
18 22 44 0
-18 -22 -44 0
19 37 44 0
-19 -37 -44 0
20 44 52 0
-20 -44 -52 0
21 44 67 0
-21 -44 -67 0
8 17 45 0
-8 -17 -45 0
18 23 45 0
-18 -23 -45 0
19 38 45 0
-19 -38 -45 0
20 45 53 0
-20 -45 -53 0
21 45 68 0
-21 -45 -68 0
9 17 46 0
-9 -17 -46 0
18 24 46 0
-18 -24 -46 0
19 39 46 0
-19 -39 -46 0
20 46 54 0
-20 -46 -54 0
10 17 47 0
-10 -17 -47 0
18 25 47 0
-18 -25 -47 0
19 40 47 0
-19 -40 -47 0
20 47 55 0
-20 -47 -55 0
11 17 48 0
-11 -17 -48 0
18 26 48 0
-18 -26 -48 0
19 41 48 0
-19 -41 -48 0
20 48 56 0
-20 -48 -56 0
12 17 49 0
-12 -17 -49 0
18 27 49 0
-18 -27 -49 0
19 42 49 0
-19 -42 -49 0
20 49 57 0
-20 -49 -57 0
13 17 50 0
-13 -17 -50 0
18 28 50 0
-18 -28 -50 0
19 43 50 0
-19 -43 -50 0
20 50 58 0
-20 -50 -58 0
14 17 51 0
-14 -17 -51 0
18 29 51 0
-18 -29 -51 0
19 44 51 0
-19 -44 -51 0
20 51 59 0
-20 -51 -59 0
15 17 52 0
-15 -17 -52 0
18 30 52 0
-18 -30 -52 0
19 45 52 0
-19 -45 -52 0
20 52 60 0
-20 -52 -60 0
1 16 53 0
-1 -16 -53 0
16 17 53 0
-16 -17 -53 0
18 31 53 0
-18 -31 -53 0
19 46 53 0
-19 -46 -53 0
20 53 61 0
-20 -53 -61 0
2 16 54 0
-2 -16 -54 0
17 54 0
-17 -54 0
18 32 54 0
-18 -32 -54 0
19 47 54 0
-19 -47 -54 0
20 54 62 0
-20 -54 -62 0
3 16 55 0
-3 -16 -55 0
17 18 55 0
-17 -18 -55 0
18 33 55 0
-18 -33 -55 0
19 48 55 0
-19 -48 -55 0
20 55 63 0
-20 -55 -63 0
4 16 56 0
-4 -16 -56 0
17 19 56 0
-17 -19 -56 0
18 34 56 0
-18 -34 -56 0
19 49 56 0
-19 -49 -56 0
20 56 64 0
-20 -56 -64 0
5 16 57 0
-5 -16 -57 0
17 20 57 0
-17 -20 -57 0
18 35 57 0
-18 -35 -57 0
19 50 57 0
-19 -50 -57 0
20 57 65 0
-20 -57 -65 0
6 16 58 0
-6 -16 -58 0
17 21 58 0
-17 -21 -58 0
18 36 58 0
-18 -36 -58 0
19 51 58 0
-19 -51 -58 0
20 58 66 0
-20 -58 -66 0
7 16 59 0
-7 -16 -59 0
17 22 59 0
-17 -22 -59 0
18 37 59 0
-18 -37 -59 0
19 52 59 0
-19 -52 -59 0
20 59 67 0
-20 -59 -67 0
8 16 60 0
-8 -16 -60 0
17 23 60 0
-17 -23 -60 0
18 38 60 0
-18 -38 -60 0
19 53 60 0
-19 -53 -60 0
20 60 68 0
-20 -60 -68 0
9 16 61 0
-9 -16 -61 0
17 24 61 0
-17 -24 -61 0
18 39 61 0
-18 -39 -61 0
19 54 61 0
-19 -54 -61 0
10 16 62 0
-10 -16 -62 0
17 25 62 0
-17 -25 -62 0
18 40 62 0
-18 -40 -62 0
19 55 62 0
-19 -55 -62 0
11 16 63 0
-11 -16 -63 0
17 26 63 0
-17 -26 -63 0
18 41 63 0
-18 -41 -63 0
19 56 63 0
-19 -56 -63 0
12 16 64 0
-12 -16 -64 0
17 27 64 0
-17 -27 -64 0
18 42 64 0
-18 -42 -64 0
19 57 64 0
-19 -57 -64 0
13 16 65 0
-13 -16 -65 0
17 28 65 0
-17 -28 -65 0
18 43 65 0
-18 -43 -65 0
19 58 65 0
-19 -58 -65 0
14 16 66 0
-14 -16 -66 0
17 29 66 0
-17 -29 -66 0
18 44 66 0
-18 -44 -66 0
19 59 66 0
-19 -59 -66 0
15 16 67 0
-15 -16 -67 0
17 30 67 0
-17 -30 -67 0
18 45 67 0
-18 -45 -67 0
19 60 67 0
-19 -60 -67 0
1 15 68 0
-1 -15 -68 0
16 68 0
-16 -68 0
17 31 68 0
-17 -31 -68 0
18 46 68 0
-18 -46 -68 0
19 61 68 0
-19 -61 -68 0
