certificates/rado_a15_c292_N68.drat
19 -65 16 0
-19 -67 -68 0
-67 -68 0
d -19 -67 -68 0
-68 0
16 0
-19 65 0
19 0
-12 0
-26 0
-9 0
-23 0
65 0
20 0
15 0
62 0
-13 0
-58 0
-27 0
-28 0
-7 0
-8 0
-11 0
-24 0
-57 0
-67 0
-22 0
-10 0
-55 0
-54 0
66 0
5 0
60 0
45 0
61 0
64 0
4 0
14 0
46 0
49 0
50 0
51 0
29 0
30 0
47 0
48 0
63 0
17 0
2 0
1 0
0
